FILENAME:   /home/mcs001/s132664/testsets/IP/miplib2017/chromaticindex256-8.mps.gz
SETTINGS:   settings_isopr_minimalindexbranching_avoidsubtreenodes
TIMELIMIT:  7200
OUTPUTNAME: final_miplib_symretope_if_extended_generating_set_cpx_v802__settings_isopr_minimalindexbranching_avoidsubtreenodes__1__
BINNAME:    bin/symmetries.linux.x86_64.gnu.opt.cpx
BASENAME:   chromaticindex256-8.mps.gz
SEED:       1
@01 /home/mcs001/s132664/testsets/IP/miplib2017/chromaticindex256-8.mps.gz ===========
@02 chromaticindex256-8.mps.gz
@03 1686561674
SCIP version 8.0.2 [precision: 8 byte] [memory: block] [mode: optimized] [LP solver: CPLEX 20.1.0.0] [GitHash: 5f0473c]
Copyright (C) 2002-2022 Konrad-Zuse-Zentrum fuer Informationstechnik Berlin (ZIB)

Symmetry handling routines - (c) Marc Pfetsch, Thomas Rehn, Christopher Hojny.
[GitHash: a1587cb]


Turned off presolver <gateextraction>.
reading parameter file <../settings/settings_isopr_minimalindexbranching_avoidsubtreenodes.set> ...

Changed settings:
limits/time = 7200
limits/restarts = 0
randomization/randomseedshift = 1
constraints/orbitope/sepafreq = -1
constraints/orbitope/propfreq = 1
presolving/gateextraction/maxrounds = 0
propagating/isoprune/avoidsubtreenodes = TRUE
useisoprune = TRUE
usebranchfirst = TRUE


solving problem ...

original problem has 18432 variables (18432 bin, 0 int, 0 impl, 0 cont) and 16895 constraints
presolving:
(round 1, exhaustive) 0 del vars, 0 del conss, 0 add conss, 0 chg bounds, 0 chg sides, 0 chg coeffs, 16895 upgd conss, 0 impls, 16895 clqs
   (0.5s) probing: 51/18432 (0.3%) - 0 fixings, 0 aggregations, 0 implications, 0 bound changes
   (0.5s) probing aborted: 50/50 successive totally useless probings
Required symmetry:			(1 bin, 0 int, 0 cont); (fixed: 0 bin, 1 int, 0 cont)
Time for symmetry detection:		0.24 	(matrix graph, 64510 nodes, 135144 edges)
Number of generators:			4 	(max: 1500)
Order of symmetry group:		48
Log10 of symmetry group order:		1.7
Number of vars moved by some symmetry:	18432
Total time for symmetry detection:	0.25

Turned off presolver <domcol>.
Turned off presolver <components>.

presolving (2 rounds: 2 fast, 2 medium, 2 exhaustive):
 0 deleted vars, 0 deleted constraints, 0 added constraints, 0 tightened bounds, 0 added holes, 0 changed sides, 0 changed coefficients
 0 implications, 16895 cliques
presolved problem has 18432 variables (18432 bin, 0 int, 0 impl, 0 cont) and 16896 constraints
  16895 constraints of type <setppc>
      1 constraints of type <symmetries>
transformed objective value is always integral (scale: 1)
Presolving Time: 0.70

 time | node  | left  |LP iter|LP it/n|mem/heur|mdpt |frac |vars |cons |cols |rows |cuts |confs|strbr|  dualbound   | primalbound  |  gap   
  2.4s|     1 |     0 |     1 |     - |   177M |   0 |  12k|  18k|  16k|  18k|  16k|   0 |  17 |   0 | 3.000000e+00 |      --      |    Inf 
o17.5s|     1 |     0 | 11545 |     - |feaspump|   0 |   0 |  18k|  16k|  18k|  16k|   0 |  18 |   0 | 3.000000e+00 | 4.000000e+00 |  33.33%
 20.8s|     1 |     2 | 11545 |     - |   199M |   0 |  12k|  18k|  16k|  18k|  16k|   0 |  18 |   0 | 3.000000e+00 | 4.000000e+00 |  33.33%
  228s|   100 |    97 | 67573 | 565.9 |   208M |  46 |6273 |  18k|  17k|  18k|  16k|   0 | 234 |   0 | 3.000000e+00 | 4.000000e+00 |  33.33%
  374s|   200 |   197 | 91715 | 402.9 |   211M |  47 |6262 |  18k|  17k|  18k|  16k|   0 | 606 |   0 | 3.000000e+00 | 4.000000e+00 |  33.33%
  558s|   300 |   297 |105543 | 314.4 |   211M |  49 |6193 |  18k|  17k|  18k|  16k|   0 | 844 |   0 | 3.000000e+00 | 4.000000e+00 |  33.33%
  684s|   400 |   397 |115420 | 260.3 |   217M |  49 |6210 |  18k|  17k|  18k|  16k|   0 |1066 |   0 | 3.000000e+00 | 4.000000e+00 |  33.33%
  809s|   500 |   497 |122226 | 221.8 |   217M |  85 |5377 |  18k|  18k|  18k|  16k|   0 |1174 |   0 | 3.000000e+00 | 4.000000e+00 |  33.33%
 1017s|   600 |   595 |126460 | 191.8 |   219M | 169 |4911 |  18k|  18k|  18k|  16k|   0 |1211 |   0 | 3.000000e+00 | 4.000000e+00 |  33.33%
 1327s|   700 |   665 |129918 | 169.3 |   221M | 233 |4687 |  18k|  18k|  18k|  16k|   0 |1215 |   0 | 3.000000e+00 | 4.000000e+00 |  33.33%
 1781s|   800 |   731 |133241 | 152.3 |   221M | 309 |4053 |  18k|  18k|  18k|  16k|   0 |1220 |   0 | 3.000000e+00 | 4.000000e+00 |  33.33%
 2230s|   900 |   727 |135535 | 137.9 |   221M | 309 |   - |  18k|  18k|  18k|  16k|   0 |1220 |   0 | 3.000000e+00 | 4.000000e+00 |  33.33%
 2421s|  1000 |   731 |138070 | 126.7 |   221M | 310 |3982 |  18k|  18k|  18k|  16k|   0 |1220 |   0 | 3.000000e+00 | 4.000000e+00 |  33.33%
 2612s|  1100 |   727 |140370 | 117.2 |   221M | 310 |4125 |  18k|  18k|  18k|  16k|   0 |1220 |   0 | 3.000000e+00 | 4.000000e+00 |  33.33%
 2803s|  1200 |   739 |142722 | 109.4 |   221M | 311 |4045 |  18k|  18k|  18k|  16k|   0 |1220 |   0 | 3.000000e+00 | 4.000000e+00 |  33.33%
 time | node  | left  |LP iter|LP it/n|mem/heur|mdpt |frac |vars |cons |cols |rows |cuts |confs|strbr|  dualbound   | primalbound  |  gap   
 2994s|  1300 |   735 |144858 | 102.6 |   221M | 312 |4046 |  18k|  18k|  18k|  16k|   0 |1220 |   0 | 3.000000e+00 | 4.000000e+00 |  33.33%
 3185s|  1400 |   735 |146940 |  96.8 |   221M | 312 |4031 |  18k|  18k|  18k|  16k|   0 |1220 |   0 | 3.000000e+00 | 4.000000e+00 |  33.33%
 3376s|  1500 |   733 |149328 |  91.9 |   221M | 312 |   - |  18k|  18k|  18k|  16k|   0 |1220 |   0 | 3.000000e+00 | 4.000000e+00 |  33.33%
 3567s|  1600 |   735 |151775 |  87.7 |   221M | 312 |4030 |  18k|  18k|  18k|  16k|   0 |1220 |   0 | 3.000000e+00 | 4.000000e+00 |  33.33%
 3759s|  1700 |   731 |153922 |  83.8 |   221M | 313 |3990 |  18k|  18k|  18k|  16k|   0 |1220 |   0 | 3.000000e+00 | 4.000000e+00 |  33.33%
 3950s|  1800 |   737 |156328 |  80.5 |   221M | 313 |4054 |  18k|  18k|  18k|  16k|   0 |1220 |   0 | 3.000000e+00 | 4.000000e+00 |  33.33%
 4141s|  1900 |   733 |158271 |  77.3 |   221M | 313 |4157 |  18k|  18k|  18k|  16k|   0 |1220 |   0 | 3.000000e+00 | 4.000000e+00 |  33.33%
 4332s|  2000 |   735 |160780 |  74.7 |   221M | 314 |4042 |  18k|  18k|  18k|  16k|   0 |1220 |   0 | 3.000000e+00 | 4.000000e+00 |  33.33%
 4524s|  2100 |   733 |163096 |  72.2 |   221M | 314 |3950 |  18k|  18k|  18k|  16k|   0 |1220 |   0 | 3.000000e+00 | 4.000000e+00 |  33.33%
 4714s|  2200 |   733 |165401 |  70.0 |   221M | 314 |   - |  18k|  18k|  18k|  16k|   0 |1220 |   0 | 3.000000e+00 | 4.000000e+00 |  33.33%
 4905s|  2300 |   733 |167736 |  67.9 |   221M | 314 |   - |  18k|  18k|  18k|  16k|   0 |1220 |   0 | 3.000000e+00 | 4.000000e+00 |  33.33%
 5097s|  2400 |   733 |170164 |  66.1 |   221M | 314 |   - |  18k|  18k|  18k|  16k|   0 |1220 |   0 | 3.000000e+00 | 4.000000e+00 |  33.33%
 5307s|  2500 |   735 |172630 |  64.5 |   221M | 314 |3999 |  18k|  18k|  18k|  16k|   0 |1220 |   0 | 3.000000e+00 | 4.000000e+00 |  33.33%
 5522s|  2600 |   733 |175028 |  62.9 |   221M | 314 |4210 |  18k|  18k|  18k|  16k|   0 |1220 |   0 | 3.000000e+00 | 4.000000e+00 |  33.33%
 5737s|  2700 |   737 |177385 |  61.4 |   221M | 314 |3984 |  18k|  18k|  18k|  16k|   0 |1220 |   0 | 3.000000e+00 | 4.000000e+00 |  33.33%
 time | node  | left  |LP iter|LP it/n|mem/heur|mdpt |frac |vars |cons |cols |rows |cuts |confs|strbr|  dualbound   | primalbound  |  gap   
 5950s|  2800 |   737 |179796 |  60.1 |   221M | 315 |   - |  18k|  18k|  18k|  16k|   0 |1220 |   0 | 3.000000e+00 | 4.000000e+00 |  33.33%
 6163s|  2900 |   739 |182210 |  58.9 |   221M | 315 |4137 |  18k|  18k|  18k|  16k|   0 |1220 |   0 | 3.000000e+00 | 4.000000e+00 |  33.33%
 6376s|  3000 |   739 |184542 |  57.7 |   221M | 315 |   - |  18k|  18k|  18k|  16k|   0 |1220 |   0 | 3.000000e+00 | 4.000000e+00 |  33.33%
 6636s|  3100 |   733 |186822 |  56.6 |   221M | 315 |4128 |  18k|  18k|  18k|  16k|   0 |1220 |   0 | 3.000000e+00 | 4.000000e+00 |  33.33%
 6907s|  3200 |   735 |189281 |  55.6 |   221M | 315 |   - |  18k|  18k|  18k|  16k|   0 |1220 |   0 | 3.000000e+00 | 4.000000e+00 |  33.33%
 7186s|  3300 |   737 |191717 |  54.6 |   221M | 315 |   - |  18k|  18k|  18k|  16k|   0 |1220 |   0 | 3.000000e+00 | 4.000000e+00 |  33.33%

SCIP Status        : solving was interrupted [time limit reached]
Solving Time (sec) : 7202.41
Solving Nodes      : 3306
Primal Bound       : +4.00000000000000e+00 (1 solutions)
Dual Bound         : +3.00000000000000e+00
Gap                : 33.33 %

Number of variables fixed to 0 by isomorphism pruning:	     6
Number of variables fixed to 1 by isomorphism pruning:	     0
@04 1686568876
